p edge 34 238
e 1 13
e 1 22
e 1 22
e 1 23
e 1 25
e 1 28
e 1 33
e 2 10
e 2 16
e 2 20
e 2 20
e 2 27
e 2 32
e 2 34
e 3 10
e 3 18
e 3 18
e 3 32
e 3 33
e 3 33
e 3 33
e 4 2
e 4 12
e 4 13
e 4 15
e 4 25
e 4 32
e 4 33
e 5 3
e 5 11
e 5 16
e 5 31
e 5 32
e 5 33
e 5 34
e 6 2
e 6 2
e 6 5
e 6 11
e 6 12
e 6 16
e 6 28
e 7 5
e 7 9
e 7 14
e 7 17
e 7 19
e 7 21
e 7 34
e 8 2
e 8 12
e 8 15
e 8 21
e 8 23
e 8 32
e 8 33
e 9 6
e 9 17
e 9 21
e 9 24
e 9 27
e 9 28
e 9 29
e 10 8
e 10 9
e 10 12
e 10 23
e 10 31
e 10 32
e 10 33
e 11 3
e 11 15
e 11 16
e 11 18
e 11 22
e 11 29
e 11 34
e 12 5
e 12 8
e 12 15
e 12 15
e 12 24
e 12 26
e 12 34
e 13 6
e 13 7
e 13 17
e 13 18
e 13 26
e 13 28
e 13 32
e 14 12
e 14 16
e 14 19
e 14 20
e 14 23
e 14 25
e 14 27
e 15 14
e 15 14
e 15 16
e 15 16
e 15 21
e 15 22
e 15 31
e 16 1
e 16 3
e 16 15
e 16 18
e 16 26
e 16 28
e 16 30
e 17 7
e 17 8
e 17 16
e 17 21
e 17 23
e 17 27
e 17 32
e 18 2
e 18 5
e 18 15
e 18 16
e 18 27
e 18 27
e 18 31
e 19 6
e 19 12
e 19 17
e 19 20
e 19 23
e 19 25
e 19 30
e 20 11
e 20 22
e 20 26
e 20 26
e 20 26
e 20 29
e 20 33
e 21 7
e 21 10
e 21 13
e 21 13
e 21 15
e 21 27
e 21 32
e 22 4
e 22 5
e 22 13
e 22 14
e 22 26
e 22 26
e 22 27
e 23 7
e 23 10
e 23 20
e 23 22
e 23 27
e 23 29
e 23 31
e 24 1
e 24 2
e 24 18
e 24 23
e 24 31
e 24 32
e 24 34
e 25 4
e 25 8
e 25 15
e 25 19
e 25 28
e 25 29
e 25 31
e 26 2
e 26 7
e 26 18
e 26 20
e 26 24
e 26 28
e 26 29
e 27 3
e 27 6
e 27 10
e 27 13
e 27 21
e 27 32
e 27 33
e 28 2
e 28 3
e 28 7
e 28 10
e 28 20
e 28 27
e 28 32
e 29 5
e 29 5
e 29 8
e 29 8
e 29 12
e 29 19
e 29 26
e 30 8
e 30 16
e 30 17
e 30 28
e 30 28
e 30 33
e 30 34
e 31 3
e 31 6
e 31 6
e 31 7
e 31 14
e 31 21
e 31 28
e 32 3
e 32 5
e 32 16
e 32 20
e 32 22
e 32 30
e 32 33
e 33 6
e 33 10
e 33 20
e 33 23
e 33 24
e 33 27
e 33 31
e 34 19
e 34 20
e 34 20
e 34 24
e 34 25
e 34 25
e 34 31
